4 
5  35 48 
6  12 28 43 57 
7  12 30 45 
8  00 15 30 45 
9  00 15 30 45 
10  00 15 32 47 
11  02 17 32 47 
12  02 17 32 47 
13  02 17 32 48 
14  03 18 33 48 
15  03 18 32 46 
16  01 16 31 46 
17  01 16 31 46 
18  01 16 31 46 
19  01 16 32 46 
20  01 16 30 45 
21  00 15 30 45 
22  00 30 
23 
